99
0 64 45 25 48 24 51 43 32 63 
69 88 84 12 71 72 52 4 35 94 
29 1 92 93 13 20 16 14 53 33 
56 36 3 17 82 42 75 59 15 47 
67 46 91 87 89 39 10 95 73 85 
74 9 19 26 23 68 90 11 34 79 
28 30 6 55 98 40 65 80 66 86 
21 61 54 97 83 58 70 41 57 81 
5 50 77 22 38 76 27 31 37 60 
49 62 2 18 8 78 7 96 44 
